x low 4.00
p edge 93 255
n 0 1.00
n 1 1.00
n 5 1.00
n 2 1.00
n 3 1.00
n 4 1.00
n 62 1.00
n 63 1.00
n 7 1.00
n 11 1.00
n 6 1.00
n 9 1.00
n 8 1.00
n 61 1.00
n 10 1.00
n 13 1.00
n 12 1.00
n 15 1.00
n 17 1.00
n 14 1.00
n 16 1.00
n 60 1.00
n 18 1.00
n 21 1.00
n 19 1.00
n 23 1.00
n 20 1.00
n 22 1.00
n 59 1.00
n 24 1.00
n 27 1.00
n 25 1.00
n 29 1.00
n 26 1.00
n 28 1.00
n 58 1.00
n 30 1.00
n 33 1.00
n 31 1.00
n 35 1.00
n 32 1.00
n 34 1.00
n 57 1.00
n 36 1.00
n 39 1.00
n 37 1.00
n 41 1.00
n 38 1.00
n 40 1.00
n 56 1.00
n 42 1.00
n 45 1.00
n 43 1.00
n 47 1.00
n 44 1.00
n 46 1.00
n 55 1.00
n 48 1.00
n 49 1.00
n 53 1.00
n 54 1.00
n 103 1.00
n 100 1.00
n 98 1.00
n 95 1.00
n 93 1.00
n 90 1.00
n 88 1.00
n 85 1.00
n 83 1.00
n 80 1.00
n 78 1.00
n 73 1.00
n 75 1.00
n 69 1.00
n 72 1.00
n 65 1.00
n 66 1.00
n 68 1.00
n 70 1.00
n 74 1.00
n 76 1.00
n 79 1.00
n 81 1.00
n 84 1.00
n 86 1.00
n 89 1.00
n 91 1.00
n 94 1.00
n 96 1.00
n 99 1.00
n 101 1.00
n 104 1.00
e 0 1
e 0 5
e 0 2
e 0 3
e 1 5
e 1 4
e 1 62
e 1 63
e 2 3
e 2 5
e 2 7
e 3 7
e 3 11
e 4 5
e 4 6
e 4 62
e 5 6
e 5 7
e 6 7
e 6 9
e 6 8
e 6 62
e 6 61
e 7 9
e 7 10
e 7 11
e 8 9
e 8 13
e 8 61
e 9 10
e 9 13
e 9 12
e 10 11
e 10 12
e 11 12
e 11 15
e 12 13
e 12 17
e 12 15
e 12 14
e 13 17
e 13 16
e 13 61
e 13 60
e 14 15
e 14 17
e 14 18
e 15 18
e 15 21
e 16 17
e 16 19
e 16 60
e 17 18
e 17 19
e 18 19
e 18 23
e 18 20
e 18 21
e 19 23
e 19 22
e 19 60
e 19 59
e 20 21
e 20 23
e 20 24
e 21 24
e 21 27
e 22 23
e 22 25
e 22 59
e 23 24
e 23 25
e 24 25
e 24 29
e 24 26
e 24 27
e 25 29
e 25 28
e 25 59
e 25 58
e 26 27
e 26 29
e 26 30
e 27 30
e 27 33
e 28 29
e 28 31
e 28 58
e 29 30
e 29 31
e 30 31
e 30 35
e 30 32
e 30 33
e 31 35
e 31 34
e 31 58
e 31 57
e 32 33
e 32 35
e 32 36
e 33 36
e 33 39
e 34 35
e 34 37
e 34 57
e 35 36
e 35 37
e 36 37
e 36 41
e 36 38
e 36 39
e 37 41
e 37 40
e 37 57
e 37 56
e 38 39
e 38 41
e 38 42
e 39 42
e 39 45
e 40 41
e 40 43
e 40 56
e 41 43
e 41 42
e 42 43
e 42 47
e 42 44
e 42 45
e 43 47
e 43 46
e 43 56
e 43 55
e 44 47
e 44 45
e 44 48
e 45 48
e 46 47
e 46 49
e 46 55
e 47 49
e 47 48
e 48 49
e 48 53
e 49 53
e 49 55
e 49 54
e 54 103
e 54 55
e 55 100
e 55 98
e 55 56
e 55 103
e 56 95
e 56 93
e 56 57
e 56 98
e 57 90
e 57 88
e 57 58
e 57 93
e 58 85
e 58 83
e 58 59
e 58 88
e 59 80
e 59 78
e 59 60
e 59 83
e 60 61
e 60 73
e 60 75
e 60 78
e 61 62
e 61 69
e 61 72
e 61 73
e 62 65
e 62 63
e 62 69
e 63 66
e 63 65
e 65 66
e 65 69
e 66 68
e 66 69
e 68 69
e 68 70
e 69 70
e 69 72
e 70 72
e 70 74
e 70 73
e 72 73
e 73 74
e 73 76
e 73 75
e 74 76
e 75 76
e 75 78
e 76 78
e 76 79
e 78 79
e 78 81
e 78 80
e 79 81
e 80 81
e 80 83
e 81 83
e 81 84
e 83 84
e 83 86
e 83 85
e 84 86
e 85 86
e 85 88
e 86 88
e 86 89
e 88 89
e 88 91
e 88 90
e 89 91
e 90 91
e 90 93
e 91 93
e 91 94
e 93 94
e 93 96
e 93 95
e 94 96
e 95 96
e 95 98
e 96 99
e 96 98
e 98 99
e 98 101
e 98 100
e 99 101
e 100 101
e 100 103
e 101 104
e 101 103
e 103 104
e 45 53
e 54 53
e 63 68
e 68 74
e 74 79
e 79 84
e 84 89
e 89 94
e 94 99
e 99 104
e 54 104
